3 
4 
5  03 23 41 56 
6  09 24 39 54 
7  09 24 39 54 
8  09 24 39 55 
9  09 24 39 54 
10  09 23 38 53 
11  08 23 38 53 
12  08 23 38 53 
13  08 23 38 53 
14  08 23 38 53 
15  08 23 38 53 
16  08 23 38 53 
17  08 23 38 53 
18  08 24 39 54 
19  09 24 39 54 
20  09 24 39 57 
21  12 24 39 54 
22  09 28 43 59 
23 
0 
